NAME : n40w80.003.488.tour
COMMENT : Length = 488
COMMENT : Found by LKH [Keld Helsgaun] Tue Nov  7 19:35:16 2017
TYPE : TOUR
DIMENSION : 41
TOUR_SECTION
1
32
35
19
11
33
15
25
17
22
39
16
23
9
36
6
7
28
27
21
14
38
8
26
5
3
34
30
2
13
4
29
24
10
12
20
18
31
37
41
40
-1
EOF
